c preprocessed version of SquaredSkewHadamardMatrixGraph_2, 49 vertices, 588 edges
p td 49 588
0 1
0 3
0 7
0 8
0 10
0 12
0 17
0 19
0 20
0 22
0 23
0 24
0 26
0 32
0 34
0 35
0 36
0 40
0 42
0 43
0 44
0 45
0 47
0 48
1 2
1 4
1 8
1 9
1 11
1 12
1 14
1 18
1 20
1 23
1 24
1 25
1 27
1 29
1 33
1 34
1 36
1 37
1 41
1 43
1 44
1 45
1 48
2 3
2 4
2 5
2 6
2 10
2 11
2 14
2 18
2 19
2 22
2 24
2 28
2 29
2 33
2 35
2 38
2 39
2 43
3 4
3 5
3 7
3 11
3 13
3 15
3 19
3 20
3 21
3 24
3 25
3 30
3 35
3 36
3 37
3 39
3 40
4 5
4 6
4 8
4 13
4 14
4 16
4 20
4 22
4 25
4 26
4 29
4 31
4 36
4 38
4 40
4 41
5 6
5 7
5 9
5 14
5 15
5 17
5 24
5 26
5 27
5 29
5 30
5 32
5 39
5 41
5 42
6 7
6 8
6 9
6 10
6 11
6 13
6 15
6 16
6 18
6 22
6 24
6 26
6 32
6 35
6 36
6 38
6 39
6 41
7 8
7 9
7 10
7 11
7 13
7 16
7 17
7 19
7 24
7 25
7 27
7 29
7 33
7 36
7 39
7 40
7 42
8 9
8 10
8 11
8 13
8 17
8 18
8 20
8 25
8 26
8 28
8 29
8 30
8 35
8 40
8 41
8 43
9 10
9 11
9 13
9 14
9 18
9 19
9 21
9 26
9 27
9 30
9 31
9 36
9 37
9 41
9 42
10 11
10 13
10 15
10 19
10 20
10 22
10 27
10 28
10 29
10 31
10 32
10 38
10 42
10 43
11 13
11 14
11 16
11 20
11 21
11 24
11 28
11 30
11 32
11 33
11 37
11 39
11 43
12 2
12 3
12 5
12 9
12 10
12 13
12 14
12 15
12 19
12 23
12 25
12 26
12 28
12 29
12 30
12 34
12 35
12 37
12 38
12 42
12 44
12 45
13 14
13 15
13 17
13 21
13 22
13 25
13 31
13 33
13 35
13 37
13 38
13 40
14 15
14 16
14 17
14 18
14 19
14 20
14 22
14 24
14 26
14 30
14 31
14 33
14 40
14 42
14 43
15 16
15 17
15 18
15 19
15 20
15 24
15 25
15 27
15 31
15 32
15 35
15 37
15 41
15 43
16 17
16 18
16 19
16 20
16 25
16 26
16 28
16 32
16 33
16 36
16 37
16 38
16 42
17 18
17 19
17 20
17 21
17 26
17 27
17 29
17 33
17 35
17 38
17 39
17 43
18 19
18 20
18 22
18 27
18 28
18 30
18 35
18 36
18 37
18 39
18 40
19 20
19 21
19 24
19 28
19 29
19 31
19 36
19 38
19 40
19 41
20 21
20 22
20 25
20 29
20 30
20 32
20 39
20 41
20 42
21 22
21 24
21 25
21 26
21 27
21 28
21 30
21 31
21 33
21 38
21 39
21 41
22 24
22 25
22 26
22 27
22 28
22 31
22 32
22 35
22 39
22 40
22 42
23 3
23 4
23 6
23 10
23 11
23 15
23 16
23 20
23 21
23 26
23 27
23 30
23 31
23 34
23 36
23 38
23 39
23 43
23 44
23 45
23 46
24 25
24 26
24 27
24 28
24 32
24 33
24 36
24 40
24 41
24 43
25 26
25 27
25 28
25 29
25 33
25 35
25 37
25 41
25 42
26 27
26 28
26 30
26 35
26 36
26 38
26 42
26 43
27 28
27 29
27 31
27 36
27 37
27 39
27 43
28 29
28 30
28 32
28 37
28 38
28 40
29 30
29 31
29 32
29 33
29 35
29 36
29 38
29 39
29 41
30 31
30 32
30 33
30 35
30 36
30 39
30 40
30 42
31 32
31 33
31 35
31 36
31 40
31 41
31 43
32 33
32 35
32 36
32 37
32 41
32 42
33 35
33 36
33 38
33 42
33 43
34 4
34 5
34 7
34 11
34 13
34 14
34 16
34 17
34 22
34 27
34 28
34 29
34 31
34 32
34 37
34 39
34 40
34 44
34 45
34 47
35 36
35 37
35 39
35 43
36 37
36 38
36 40
37 38
37 39
37 40
37 41
37 42
37 43
38 39
38 40
38 41
38 42
38 43
39 40
39 41
39 42
39 43
40 41
40 42
40 43
41 42
41 43
42 43
44 5
44 6
44 8
44 13
44 15
44 17
44 18
44 21
44 24
44 28
44 30
44 32
44 33
44 38
44 40
44 41
44 45
44 46
44 48
45 2
45 6
45 7
45 9
45 16
45 18
45 19
45 21
45 22
45 25
45 31
45 33
45 35
45 39
45 41
45 42
45 46
45 47
46 2
46 3
46 4
46 5
46 7
46 8
46 10
46 15
46 16
46 18
46 25
46 27
46 28
46 30
46 31
46 33
46 40
46 42
46 43
46 47
46 48
47 2
47 3
47 4
47 5
47 8
47 9
47 11
47 16
47 17
47 19
47 21
47 26
47 28
47 31
47 32
47 35
47 37
47 41
47 43
47 48
48 2
48 3
48 4
48 5
48 9
48 10
48 13
48 17
48 18
48 20
48 21
48 22
48 27
48 32
48 33
48 36
48 37
48 38
48 42
